p cnf 173 687
c p weight 6 1 0
c p weight -6 1 0
c p weight 7 0 0
c p weight -7 1 0
c p weight 8 -1 0
c p weight -8 1 0
c p weight 10 6.12323399573676603586882014729198302312846062338790031898128063403419218957424163818359375E-17 0
c p weight -10 1 0
c p weight 11 1 0
c p weight -11 1 0
c p weight 12 -1 0
c p weight -12 1 0
c p weight 14 -0.1335612396259832357348074083347455598413944244384765625 0
c p weight -14 1 0
c p weight 15 0.99104056186897349078890329110436141490936279296875 0
c p weight -15 1 0
c p weight 16 -1 0
c p weight -16 1 0
c p weight 18 6.12323399573676603586882014729198302312846062338790031898128063403419218957424163818359375E-17 0
c p weight -18 1 0
c p weight 19 1 0
c p weight -19 1 0
c p weight 20 -1 0
c p weight -20 1 0
c p weight 22 -1 0
c p weight -22 1 0
c p weight 23 3.673940397442059375002259206809000622711899723162043418511757408850826323032379150390625E-16 0
c p weight -23 1 0
c p weight 24 -1 0
c p weight -24 1 0
c p weight 26 1 0
c p weight -26 1 0
c p weight 27 0 0
c p weight -27 1 0
c p weight 28 -1 0
c p weight -28 1 0
c p weight 30 6.12323399573676603586882014729198302312846062338790031898128063403419218957424163818359375E-17 0
c p weight -30 1 0
c p weight 31 1 0
c p weight -31 1 0
c p weight 32 -1 0
c p weight -32 1 0
c p weight 34 -0.991511476394992374849834959604777395725250244140625 0
c p weight -34 1 0
c p weight 35 -0.130019199263118168108377403768827207386493682861328125 0
c p weight -35 1 0
c p weight 36 -1 0
c p weight -36 1 0
c p weight 38 6.12323399573676603586882014729198302312846062338790031898128063403419218957424163818359375E-17 0
c p weight -38 1 0
c p weight 39 1 0
c p weight -39 1 0
c p weight 40 -1 0
c p weight -40 1 0
c p weight 42 -1 0
c p weight -42 1 0
c p weight 43 3.673940397442059375002259206809000622711899723162043418511757408850826323032379150390625E-16 0
c p weight -43 1 0
c p weight 44 -1 0
c p weight -44 1 0
c p weight 47 -1 0
c p weight -47 1 0
c p weight 49 1 0
c p weight -49 1 0
c p weight 50 0 0
c p weight -50 1 0
c p weight 51 -1 0
c p weight -51 1 0
c p weight 53 6.12323399573676603586882014729198302312846062338790031898128063403419218957424163818359375E-17 0
c p weight -53 1 0
c p weight 54 1 0
c p weight -54 1 0
c p weight 55 -1 0
c p weight -55 1 0
c p weight 57 0.6676589223122142424671210392261855304241180419921875 0
c p weight -57 1 0
c p weight 58 0.74446730180505082952180373467854224145412445068359375 0
c p weight -58 1 0
c p weight 59 -1 0
c p weight -59 1 0
c p weight 61 6.12323399573676603586882014729198302312846062338790031898128063403419218957424163818359375E-17 0
c p weight -61 1 0
c p weight 62 1 0
c p weight -62 1 0
c p weight 63 -1 0
c p weight -63 1 0
c p weight 65 -1 0
c p weight -65 1 0
c p weight 66 3.673940397442059375002259206809000622711899723162043418511757408850826323032379150390625E-16 0
c p weight -66 1 0
c p weight 67 -1 0
c p weight -67 1 0
c p weight 69 1 0
c p weight -69 1 0
c p weight 70 0 0
c p weight -70 1 0
c p weight 71 -1 0
c p weight -71 1 0
c p weight 73 6.12323399573676603586882014729198302312846062338790031898128063403419218957424163818359375E-17 0
c p weight -73 1 0
c p weight 74 1 0
c p weight -74 1 0
c p weight 75 -1 0
c p weight -75 1 0
c p weight 77 0.00751535691195858411572938706513014039956033229827880859375 0
c p weight -77 1 0
c p weight 78 0.999971759306474528017361080856062471866607666015625 0
c p weight -78 1 0
c p weight 79 -1 0
c p weight -79 1 0
c p weight 81 6.12323399573676603586882014729198302312846062338790031898128063403419218957424163818359375E-17 0
c p weight -81 1 0
c p weight 82 1 0
c p weight -82 1 0
c p weight 83 -1 0
c p weight -83 1 0
c p weight 85 -1 0
c p weight -85 1 0
c p weight 86 3.673940397442059375002259206809000622711899723162043418511757408850826323032379150390625E-16 0
c p weight -86 1 0
c p weight 87 -1 0
c p weight -87 1 0
c p weight 90 -1 0
c p weight -90 1 0
c p weight 92 1 0
c p weight -92 1 0
c p weight 93 0 0
c p weight -93 1 0
c p weight 94 -1 0
c p weight -94 1 0
c p weight 96 6.12323399573676603586882014729198302312846062338790031898128063403419218957424163818359375E-17 0
c p weight -96 1 0
c p weight 97 1 0
c p weight -97 1 0
c p weight 98 -1 0
c p weight -98 1 0
c p weight 100 0.99995600138413631707834383632871322333812713623046875 0
c p weight -100 1 0
c p weight 101 -0.00938058078421928620560521494553540833294391632080078125 0
c p weight -101 1 0
c p weight 102 -1 0
c p weight -102 1 0
c p weight 104 6.12323399573676603586882014729198302312846062338790031898128063403419218957424163818359375E-17 0
c p weight -104 1 0
c p weight 105 1 0
c p weight -105 1 0
c p weight 106 -1 0
c p weight -106 1 0
c p weight 108 -1 0
c p weight -108 1 0
c p weight 109 3.673940397442059375002259206809000622711899723162043418511757408850826323032379150390625E-16 0
c p weight -109 1 0
c p weight 110 -1 0
c p weight -110 1 0
c p weight 112 1 0
c p weight -112 1 0
c p weight 113 0 0
c p weight -113 1 0
c p weight 114 -1 0
c p weight -114 1 0
c p weight 116 6.12323399573676603586882014729198302312846062338790031898128063403419218957424163818359375E-17 0
c p weight -116 1 0
c p weight 117 1 0
c p weight -117 1 0
c p weight 118 -1 0
c p weight -118 1 0
c p weight 120 -0.1576963200385754493293433142753201536834239959716796875 0
c p weight -120 1 0
c p weight 121 -0.98748765594628629127527119635487906634807586669921875 0
c p weight -121 1 0
c p weight 122 -1 0
c p weight -122 1 0
c p weight 124 6.12323399573676603586882014729198302312846062338790031898128063403419218957424163818359375E-17 0
c p weight -124 1 0
c p weight 125 1 0
c p weight -125 1 0
c p weight 126 -1 0
c p weight -126 1 0
c p weight 128 -1 0
c p weight -128 1 0
c p weight 129 3.673940397442059375002259206809000622711899723162043418511757408850826323032379150390625E-16 0
c p weight -129 1 0
c p weight 130 -1 0
c p weight -130 1 0
c p weight 133 -1 0
c p weight -133 1 0
c p weight 135 1 0
c p weight -135 1 0
c p weight 136 0 0
c p weight -136 1 0
c p weight 137 -1 0
c p weight -137 1 0
c p weight 139 6.12323399573676603586882014729198302312846062338790031898128063403419218957424163818359375E-17 0
c p weight -139 1 0
c p weight 140 1 0
c p weight -140 1 0
c p weight 141 -1 0
c p weight -141 1 0
c p weight 143 -0.3205694895363857543912899927818216383457183837890625 0
c p weight -143 1 0
c p weight 144 -0.94722500092553563177943942719139158725738525390625 0
c p weight -144 1 0
c p weight 145 -1 0
c p weight -145 1 0
c p weight 147 6.12323399573676603586882014729198302312846062338790031898128063403419218957424163818359375E-17 0
c p weight -147 1 0
c p weight 148 1 0
c p weight -148 1 0
c p weight 149 -1 0
c p weight -149 1 0
c p weight 151 -1 0
c p weight -151 1 0
c p weight 152 3.673940397442059375002259206809000622711899723162043418511757408850826323032379150390625E-16 0
c p weight -152 1 0
c p weight 153 -1 0
c p weight -153 1 0
c p weight 155 1 0
c p weight -155 1 0
c p weight 156 0 0
c p weight -156 1 0
c p weight 157 -1 0
c p weight -157 1 0
c p weight 159 6.12323399573676603586882014729198302312846062338790031898128063403419218957424163818359375E-17 0
c p weight -159 1 0
c p weight 160 1 0
c p weight -160 1 0
c p weight 161 -1 0
c p weight -161 1 0
c p weight 163 -0.06611814736078959475751304353252635337412357330322265625 0
c p weight -163 1 0
c p weight 164 0.99781180118776757748122463453910313546657562255859375 0
c p weight -164 1 0
c p weight 165 -1 0
c p weight -165 1 0
c p weight 167 6.12323399573676603586882014729198302312846062338790031898128063403419218957424163818359375E-17 0
c p weight -167 1 0
c p weight 168 1 0
c p weight -168 1 0
c p weight 169 -1 0
c p weight -169 1 0
c p weight 171 -1 0
c p weight -171 1 0
c p weight 172 3.673940397442059375002259206809000622711899723162043418511757408850826323032379150390625E-16 0
c p weight -172 1 0
c p weight 173 -1 0
c p weight -173 1 0
-3 0
-1 0
5 1 -2 0
-5 1 2 0
-6 1 0
5 -6 -2 0
-5 -6 2 0
5 6 -1 2 0
-5 6 -1 -2 0
-7 1 0
5 -7 2 0
-5 -7 -2 0
5 7 -1 -2 0
-5 7 -1 2 0
-8 1 0
-8 2 0
-8 -5 0
8 5 -1 -2 0
9 -1 5 0
-9 1 5 0
-10 5 0
9 -10 -1 0
-9 -10 1 0
9 10 1 -5 0
-9 10 -1 -5 0
-11 5 0
9 -11 1 0
-9 -11 -1 0
9 11 -1 -5 0
-9 11 1 -5 0
-12 9 0
-12 5 0
-12 -1 0
12 -9 1 -5 0
13 9 -5 0
-13 9 5 0
-14 9 0
13 -14 -5 0
-13 -14 5 0
13 14 -9 5 0
-13 14 -9 -5 0
-15 9 0
13 -15 5 0
-13 -15 -5 0
13 15 -9 -5 0
-13 15 -9 5 0
-16 9 0
-16 5 0
-16 -13 0
16 13 -9 -5 0
17 -9 13 0
-17 9 13 0
-18 13 0
17 -18 -9 0
-17 -18 9 0
17 18 9 -13 0
-17 18 -9 -13 0
-19 13 0
17 -19 9 0
-17 -19 -9 0
17 19 -9 -13 0
-17 19 9 -13 0
-20 17 0
-20 13 0
-20 -9 0
20 -17 9 -13 0
21 17 -13 0
-21 17 13 0
-22 17 0
21 -22 -13 0
-21 -22 13 0
21 22 -17 13 0
-21 22 -17 -13 0
-23 17 0
21 -23 13 0
-21 -23 -13 0
21 23 -17 -13 0
-21 23 -17 13 0
-24 17 0
-24 13 0
-24 -21 0
24 21 -17 -13 0
25 3 -4 0
-25 3 4 0
-26 3 0
25 -26 -4 0
-25 -26 4 0
25 26 -3 4 0
-25 26 -3 -4 0
-27 3 0
25 -27 4 0
-25 -27 -4 0
25 27 -3 -4 0
-25 27 -3 4 0
-28 3 0
-28 4 0
-28 -25 0
28 25 -3 -4 0
29 -3 25 0
-29 3 25 0
-30 25 0
29 -30 -3 0
-29 -30 3 0
29 30 3 -25 0
-29 30 -3 -25 0
-31 25 0
29 -31 3 0
-29 -31 -3 0
29 31 -3 -25 0
-29 31 3 -25 0
-32 29 0
-32 25 0
-32 -3 0
32 -29 3 -25 0
33 29 -25 0
-33 29 25 0
-34 29 0
33 -34 -25 0
-33 -34 25 0
33 34 -29 25 0
-33 34 -29 -25 0
-35 29 0
33 -35 25 0
-33 -35 -25 0
33 35 -29 -25 0
-33 35 -29 25 0
-36 29 0
-36 25 0
-36 -33 0
36 33 -29 -25 0
37 -29 33 0
-37 29 33 0
-38 33 0
37 -38 -29 0
-37 -38 29 0
37 38 29 -33 0
-37 38 -29 -33 0
-39 33 0
37 -39 29 0
-37 -39 -29 0
37 39 -29 -33 0
-37 39 29 -33 0
-40 37 0
-40 33 0
-40 -29 0
40 -37 29 -33 0
41 37 -33 0
-41 37 33 0
-42 37 0
41 -42 -33 0
-41 -42 33 0
41 42 -37 33 0
-41 42 -37 -33 0
-43 37 0
41 -43 33 0
-41 -43 -33 0
41 43 -37 -33 0
-41 43 -37 33 0
-44 37 0
-44 33 0
-44 -41 0
44 41 -37 -33 0
45 17 -37 0
45 -17 37 0
-45 17 37 0
-45 -17 -37 0
46 21 -41 0
46 -21 41 0
-46 21 41 0
-46 -21 -41 0
-47 17 0
-47 41 0
-47 37 -21 0
-47 -37 21 0
47 -17 37 21 -41 0
47 -17 -37 -21 -41 0
48 17 -46 0
-48 17 46 0
-49 17 0
48 -49 -46 0
-48 -49 46 0
48 49 -17 46 0
-48 49 -17 -46 0
-50 17 0
48 -50 46 0
-48 -50 -46 0
48 50 -17 -46 0
-48 50 -17 46 0
-51 17 0
-51 46 0
-51 -48 0
51 48 -17 -46 0
52 -17 48 0
-52 17 48 0
-53 48 0
52 -53 -17 0
-52 -53 17 0
52 53 17 -48 0
-52 53 -17 -48 0
-54 48 0
52 -54 17 0
-52 -54 -17 0
52 54 -17 -48 0
-52 54 17 -48 0
-55 52 0
-55 48 0
-55 -17 0
55 -52 17 -48 0
56 52 -48 0
-56 52 48 0
-57 52 0
56 -57 -48 0
-56 -57 48 0
56 57 -52 48 0
-56 57 -52 -48 0
-58 52 0
56 -58 48 0
-56 -58 -48 0
56 58 -52 -48 0
-56 58 -52 48 0
-59 52 0
-59 48 0
-59 -56 0
59 56 -52 -48 0
60 -52 56 0
-60 52 56 0
-61 56 0
60 -61 -52 0
-60 -61 52 0
60 61 52 -56 0
-60 61 -52 -56 0
-62 56 0
60 -62 52 0
-60 -62 -52 0
60 62 -52 -56 0
-60 62 52 -56 0
-63 60 0
-63 56 0
-63 -52 0
63 -60 52 -56 0
64 60 -56 0
-64 60 56 0
-65 60 0
64 -65 -56 0
-64 -65 56 0
64 65 -60 56 0
-64 65 -60 -56 0
-66 60 0
64 -66 56 0
-64 -66 -56 0
64 66 -60 -56 0
-64 66 -60 56 0
-67 60 0
-67 56 0
-67 -64 0
67 64 -60 -56 0
68 45 -41 0
-68 45 41 0
-69 45 0
68 -69 -41 0
-68 -69 41 0
68 69 -45 41 0
-68 69 -45 -41 0
-70 45 0
68 -70 41 0
-68 -70 -41 0
68 70 -45 -41 0
-68 70 -45 41 0
-71 45 0
-71 41 0
-71 -68 0
71 68 -45 -41 0
72 -45 68 0
-72 45 68 0
-73 68 0
72 -73 -45 0
-72 -73 45 0
72 73 45 -68 0
-72 73 -45 -68 0
-74 68 0
72 -74 45 0
-72 -74 -45 0
72 74 -45 -68 0
-72 74 45 -68 0
-75 72 0
-75 68 0
-75 -45 0
75 -72 45 -68 0
76 72 -68 0
-76 72 68 0
-77 72 0
76 -77 -68 0
-76 -77 68 0
76 77 -72 68 0
-76 77 -72 -68 0
-78 72 0
76 -78 68 0
-76 -78 -68 0
76 78 -72 -68 0
-76 78 -72 68 0
-79 72 0
-79 68 0
-79 -76 0
79 76 -72 -68 0
80 -72 76 0
-80 72 76 0
-81 76 0
80 -81 -72 0
-80 -81 72 0
80 81 72 -76 0
-80 81 -72 -76 0
-82 76 0
80 -82 72 0
-80 -82 -72 0
80 82 -72 -76 0
-80 82 72 -76 0
-83 80 0
-83 76 0
-83 -72 0
83 -80 72 -76 0
84 80 -76 0
-84 80 76 0
-85 80 0
84 -85 -76 0
-84 -85 76 0
84 85 -80 76 0
-84 85 -80 -76 0
-86 80 0
84 -86 76 0
-84 -86 -76 0
84 86 -80 -76 0
-84 86 -80 76 0
-87 80 0
-87 76 0
-87 -84 0
87 84 -80 -76 0
88 60 -80 0
88 -60 80 0
-88 60 80 0
-88 -60 -80 0
89 64 -84 0
89 -64 84 0
-89 64 84 0
-89 -64 -84 0
-90 60 0
-90 84 0
-90 80 -64 0
-90 -80 64 0
90 -60 80 64 -84 0
90 -60 -80 -64 -84 0
91 60 -89 0
-91 60 89 0
-92 60 0
91 -92 -89 0
-91 -92 89 0
91 92 -60 89 0
-91 92 -60 -89 0
-93 60 0
91 -93 89 0
-91 -93 -89 0
91 93 -60 -89 0
-91 93 -60 89 0
-94 60 0
-94 89 0
-94 -91 0
94 91 -60 -89 0
95 -60 91 0
-95 60 91 0
-96 91 0
95 -96 -60 0
-95 -96 60 0
95 96 60 -91 0
-95 96 -60 -91 0
-97 91 0
95 -97 60 0
-95 -97 -60 0
95 97 -60 -91 0
-95 97 60 -91 0
-98 95 0
-98 91 0
-98 -60 0
98 -95 60 -91 0
99 95 -91 0
-99 95 91 0
-100 95 0
99 -100 -91 0
-99 -100 91 0
99 100 -95 91 0
-99 100 -95 -91 0
-101 95 0
99 -101 91 0
-99 -101 -91 0
99 101 -95 -91 0
-99 101 -95 91 0
-102 95 0
-102 91 0
-102 -99 0
102 99 -95 -91 0
103 -95 99 0
-103 95 99 0
-104 99 0
103 -104 -95 0
-103 -104 95 0
103 104 95 -99 0
-103 104 -95 -99 0
-105 99 0
103 -105 95 0
-103 -105 -95 0
103 105 -95 -99 0
-103 105 95 -99 0
-106 103 0
-106 99 0
-106 -95 0
106 -103 95 -99 0
107 103 -99 0
-107 103 99 0
-108 103 0
107 -108 -99 0
-107 -108 99 0
107 108 -103 99 0
-107 108 -103 -99 0
-109 103 0
107 -109 99 0
-107 -109 -99 0
107 109 -103 -99 0
-107 109 -103 99 0
-110 103 0
-110 99 0
-110 -107 0
110 107 -103 -99 0
111 88 -84 0
-111 88 84 0
-112 88 0
111 -112 -84 0
-111 -112 84 0
111 112 -88 84 0
-111 112 -88 -84 0
-113 88 0
111 -113 84 0
-111 -113 -84 0
111 113 -88 -84 0
-111 113 -88 84 0
-114 88 0
-114 84 0
-114 -111 0
114 111 -88 -84 0
115 -88 111 0
-115 88 111 0
-116 111 0
115 -116 -88 0
-115 -116 88 0
115 116 88 -111 0
-115 116 -88 -111 0
-117 111 0
115 -117 88 0
-115 -117 -88 0
115 117 -88 -111 0
-115 117 88 -111 0
-118 115 0
-118 111 0
-118 -88 0
118 -115 88 -111 0
119 115 -111 0
-119 115 111 0
-120 115 0
119 -120 -111 0
-119 -120 111 0
119 120 -115 111 0
-119 120 -115 -111 0
-121 115 0
119 -121 111 0
-119 -121 -111 0
119 121 -115 -111 0
-119 121 -115 111 0
-122 115 0
-122 111 0
-122 -119 0
122 119 -115 -111 0
123 -115 119 0
-123 115 119 0
-124 119 0
123 -124 -115 0
-123 -124 115 0
123 124 115 -119 0
-123 124 -115 -119 0
-125 119 0
123 -125 115 0
-123 -125 -115 0
123 125 -115 -119 0
-123 125 115 -119 0
-126 123 0
-126 119 0
-126 -115 0
126 -123 115 -119 0
127 123 -119 0
-127 123 119 0
-128 123 0
127 -128 -119 0
-127 -128 119 0
127 128 -123 119 0
-127 128 -123 -119 0
-129 123 0
127 -129 119 0
-127 -129 -119 0
127 129 -123 -119 0
-127 129 -123 119 0
-130 123 0
-130 119 0
-130 -127 0
130 127 -123 -119 0
131 103 -123 0
131 -103 123 0
-131 103 123 0
-131 -103 -123 0
132 107 -127 0
132 -107 127 0
-132 107 127 0
-132 -107 -127 0
-133 103 0
-133 127 0
-133 123 -107 0
-133 -123 107 0
133 -103 123 107 -127 0
133 -103 -123 -107 -127 0
134 103 -132 0
-134 103 132 0
-135 103 0
134 -135 -132 0
-134 -135 132 0
134 135 -103 132 0
-134 135 -103 -132 0
-136 103 0
134 -136 132 0
-134 -136 -132 0
134 136 -103 -132 0
-134 136 -103 132 0
-137 103 0
-137 132 0
-137 -134 0
137 134 -103 -132 0
138 -103 134 0
-138 103 134 0
-139 134 0
138 -139 -103 0
-138 -139 103 0
138 139 103 -134 0
-138 139 -103 -134 0
-140 134 0
138 -140 103 0
-138 -140 -103 0
138 140 -103 -134 0
-138 140 103 -134 0
-141 138 0
-141 134 0
-141 -103 0
141 -138 103 -134 0
142 138 -134 0
-142 138 134 0
-143 138 0
142 -143 -134 0
-142 -143 134 0
142 143 -138 134 0
-142 143 -138 -134 0
-144 138 0
142 -144 134 0
-142 -144 -134 0
142 144 -138 -134 0
-142 144 -138 134 0
-145 138 0
-145 134 0
-145 -142 0
145 142 -138 -134 0
146 -138 142 0
-146 138 142 0
-147 142 0
146 -147 -138 0
-146 -147 138 0
146 147 138 -142 0
-146 147 -138 -142 0
-148 142 0
146 -148 138 0
-146 -148 -138 0
146 148 -138 -142 0
-146 148 138 -142 0
-149 146 0
-149 142 0
-149 -138 0
149 -146 138 -142 0
150 146 -142 0
-150 146 142 0
-151 146 0
150 -151 -142 0
-150 -151 142 0
150 151 -146 142 0
-150 151 -146 -142 0
-152 146 0
150 -152 142 0
-150 -152 -142 0
150 152 -146 -142 0
-150 152 -146 142 0
-153 146 0
-153 142 0
-153 -150 0
153 150 -146 -142 0
154 131 -127 0
-154 131 127 0
-155 131 0
154 -155 -127 0
-154 -155 127 0
154 155 -131 127 0
-154 155 -131 -127 0
-156 131 0
154 -156 127 0
-154 -156 -127 0
154 156 -131 -127 0
-154 156 -131 127 0
-157 131 0
-157 127 0
-157 -154 0
157 154 -131 -127 0
158 -131 154 0
-158 131 154 0
-159 154 0
158 -159 -131 0
-158 -159 131 0
158 159 131 -154 0
-158 159 -131 -154 0
-160 154 0
158 -160 131 0
-158 -160 -131 0
158 160 -131 -154 0
-158 160 131 -154 0
-161 158 0
-161 154 0
-161 -131 0
161 -158 131 -154 0
162 158 -154 0
-162 158 154 0
-163 158 0
162 -163 -154 0
-162 -163 154 0
162 163 -158 154 0
-162 163 -158 -154 0
-164 158 0
162 -164 154 0
-162 -164 -154 0
162 164 -158 -154 0
-162 164 -158 154 0
-165 158 0
-165 154 0
-165 -162 0
165 162 -158 -154 0
166 -158 162 0
-166 158 162 0
-167 162 0
166 -167 -158 0
-166 -167 158 0
166 167 158 -162 0
-166 167 -158 -162 0
-168 162 0
166 -168 158 0
-166 -168 -158 0
166 168 -158 -162 0
-166 168 158 -162 0
-169 166 0
-169 162 0
-169 -158 0
169 -166 158 -162 0
170 166 -162 0
-170 166 162 0
-171 166 0
170 -171 -162 0
-170 -171 162 0
170 171 -166 162 0
-170 171 -166 -162 0
-172 166 0
170 -172 162 0
-170 -172 -162 0
170 172 -166 -162 0
-170 172 -166 162 0
-173 166 0
-173 162 0
-173 -170 0
173 170 -166 -162 0
-146 0
-166 0
-170 0
